
************************************************************
 TOWR - Trajectory Optimization for Walking Robots (v1.4)
                © Alexander W. Winkler
           https://github.com/ethz-adrl/towr
************************************************************

0.504
4.561412003533202e-59
0.2
0
0
0.24
0
0
0
t
-e1
0.21
value fo cmd_return -> t -e1 0.21
next line
0.21
0.19
0.0
0.21
-0.19
0.0
-0.21
0.19
0.0
-0.21
-0.19
0.0
0.01
ee start pos x -> 0.21
ee start pos y -> 0.19
ee start pos z -> 0
ee start pos x -> 0.21
ee start pos y -> -0.19
ee start pos z -> 0
ee start pos x -> -0.21
ee start pos y -> 0.19
ee start pos z -> 0
ee start pos x -> -0.21
ee start pos y -> -0.19
ee start pos z -> 0
start pos x -> 0
start pos y -> 0
start pos z -> 0.24
goal pos x -> 0.504
goal pos y -> 4.56141e-59
goal pos z -> 0.2
ee start pos x -> 0.21
ee start pos y -> 0.19
ee start pos z -> 0
ee start pos x -> 0.21
ee start pos y -> -0.19
ee start pos z -> 0
ee start pos x -> -0.21
ee start pos y -> 0.19
ee start pos z -> 0
ee start pos x -> -0.21
ee start pos y -> -0.19
ee start pos z -> 0
SOLVER RUN TIME : 15

******************************************************************************
This program contains Ipopt, a library for large-scale nonlinear optimization.
 Ipopt is released as open source code under the Eclipse Public License (EPL).
         For more information visit http://projects.coin-or.org/Ipopt
******************************************************************************

This is Ipopt version 3.11.9, running with linear solver mumps.
NOTE: Other linear solvers might be more efficient (see Ipopt documentation).

Number of nonzeros in equality constraint Jacobian...:    11557
Number of nonzeros in inequality constraint Jacobian.:    20605
Number of nonzeros in Lagrangian Hessian.............:        0

Total number of variables............................:     1005
                     variables with only lower bounds:        0
                variables with lower and upper bounds:        0
                     variables with only upper bounds:        0
Total number of equality constraints.................:      706
Total number of inequality constraints...............:     1024
        inequality constraints with only lower bounds:      112
   inequality constraints with lower and upper bounds:      816
        inequality constraints with only upper bounds:       96

iter    objective    inf_pr   inf_du lg(mu)  ||d||  lg(rg) alpha_du alpha_pr  ls
   0  0.0000000e+00 9.71e+00 1.00e+00   0.0 0.00e+00    -  0.00e+00 0.00e+00   0
   1  0.0000000e+00 8.65e+00 2.78e+01   0.0 5.23e+00    -  4.09e-01 1.09e-01f  1
   2  0.0000000e+00 5.89e+00 5.53e+01   0.4 7.06e+00    -  9.94e-01 3.19e-01f  1
   3  0.0000000e+00 2.77e-01 1.58e+02   0.4 5.28e+00    -  6.82e-01 1.00e+00f  1
   4  0.0000000e+00 1.65e-02 2.90e+01   0.3 8.85e-01    -  9.89e-01 1.00e+00f  1
   5  0.0000000e+00 2.52e-04 4.81e-01  -1.3 3.90e-02    -  9.96e-01 1.00e+00h  1
   6  0.0000000e+00 6.85e-05 3.32e-02  -3.4 2.65e-02    -  9.93e-01 1.00e+00h  1
   7  0.0000000e+00 5.16e-06 2.10e-04  -5.0 2.98e-03    -  1.00e+00 1.00e+00h  1

Number of Iterations....: 7

                                   (scaled)                 (unscaled)
Objective...............:   0.0000000000000000e+00    0.0000000000000000e+00
Dual infeasibility......:   2.1025264979684428e-04    2.1025264979684428e-04
Constraint violation....:   5.1576660105162597e-06    5.1576660105162597e-06
Complementarity.........:   1.1447889003866615e-05    1.1447889003866615e-05
Overall NLP error.......:   2.1025264979684428e-04    2.1025264979684428e-04


Number of objective function evaluations             = 8
Number of objective gradient evaluations             = 8
Number of equality constraint evaluations            = 8
Number of inequality constraint evaluations          = 8
Number of equality constraint Jacobian evaluations   = 8
Number of inequality constraint Jacobian evaluations = 8
Number of Lagrangian Hessian evaluations             = 0
Total CPU secs in IPOPT (w/o function evaluations)   =      0.298
Total CPU secs in NLP function evaluations           =      0.460

EXIT: Optimal Solution Found.
status -> 0

************************************************************
    IFOPT - Interface to Nonlinear Optimizers (v2.0)
                © Alexander W. Winkler
           https://github.com/ethz-adrl/ifopt
************************************************************
Legend:
c - number of variables, constraints or cost terms
i - indices of this set in overall problem
v - number of [violated variable- or constraint-bounds] or [cost term value]

                                   c             i             v 
variable-sets:
   base-lin                       306        0....305[0m           0[0m
   base-ang                       306      306....611[0m           0[0m
   ee-motion_0                     35      612....646[0m           0[0m
   ee-motion_1                     35      647....681[0m           0[0m
   ee-motion_2                     35      682....716[0m           0[0m
   ee-motion_3                     35      717....751[0m           0[0m
   ee-force_0                      72      752....823[0m           0[0m
   ee-force_1                      72      824....895[0m           0[0m
   ee-force_2                      72      896....967[0m           0[0m
   ee-force_3                      72      968...1039[0m           0[0m

constraint-sets:
   terrain-ee-motion_0             13        0.....12[0m           0[0m
   terrain-ee-motion_1             13       13.....25[0m           0[0m
   terrain-ee-motion_2             13       26.....38[0m           0[0m
   terrain-ee-motion_3             13       39.....51[0m           0[0m
   dynamic                        312       52....363[0m           0[0m
   splineacc-base-lin             147      364....510[0m           0[0m
   splineacc-base-ang             147      511....657[0m           0[0m
   rangeofmotion-0                192      658....849[0m           0[0m
   rangeofmotion-1                192      850...1041[0m           0[0m
   rangeofmotion-2                192     1042...1233[0m           0[0m
   rangeofmotion-3                192     1234...1425[0m           0[0m
   force-ee-force_0                60     1426...1485[0m           0[0m
   force-ee-force_1                60     1486...1545[0m           0[0m
   force-ee-force_2                60     1546...1605[0m           0[0m
   force-ee-force_3                60     1606...1665[0m           0[0m
   swing-ee-motion_0               16     1666...1681[0m           0[0m
   swing-ee-motion_1               16     1682...1697[0m           0[0m
   swing-ee-motion_2               16     1698...1713[0m           0[0m
   swing-ee-motion_3               16     1714...1729[0m           0[0m

cost-terms:


************************************************************
 TOWR - Trajectory Optimization for Walking Robots (v1.4)
                © Alexander W. Winkler
           https://github.com/ethz-adrl/towr
************************************************************

0.8820000000000002
0.0
0.24383995962651286
0.298382
-0.00729616
0.254315
0
-0.107487
-0.0132543
t
-e1
0.530821
value fo cmd_return -> t -e1 0.530821
next line
0.530821
0.151503
0.04384
0.576509
-0.183504
0.0230668
0.0881098
0.17917
0
0.124249
-0.16597
0
3.75
s_vel
0.128984
0.01
-t
3.75
ee start pos x -> 0.530821
ee start pos y -> 0.151503
ee start pos z -> 0.04384
ee start pos x -> 0.576509
ee start pos y -> -0.183504
ee start pos z -> 0.0230668
ee start pos x -> 0.0881098
ee start pos y -> 0.17917
ee start pos z -> 0
ee start pos x -> 0.124249
ee start pos y -> -0.16597
ee start pos z -> 0
start pos x -> 0.298382
start pos y -> -0.00729616
start pos z -> 0.254315
goal pos x -> 0.882
goal pos y -> 0
goal pos z -> 0.24384
ee start pos x -> 0.530821
ee start pos y -> 0.151503
ee start pos z -> 0.04384
ee start pos x -> 0.576509
ee start pos y -> -0.183504
ee start pos z -> 0.0230668
ee start pos x -> 0.0881098
ee start pos y -> 0.17917
ee start pos z -> 0
ee start pos x -> 0.124249
ee start pos y -> -0.16597
ee start pos z -> 0
SOLVER RUN TIME : 15

******************************************************************************
This program contains Ipopt, a library for large-scale nonlinear optimization.
 Ipopt is released as open source code under the Eclipse Public License (EPL).
         For more information visit http://projects.coin-or.org/Ipopt
******************************************************************************

This is Ipopt version 3.11.9, running with linear solver mumps.
NOTE: Other linear solvers might be more efficient (see Ipopt documentation).

Number of nonzeros in equality constraint Jacobian...:    11557
Number of nonzeros in inequality constraint Jacobian.:    20605
Number of nonzeros in Lagrangian Hessian.............:        0

Total number of variables............................:     1005
                     variables with only lower bounds:        0
                variables with lower and upper bounds:        0
                     variables with only upper bounds:        0
Total number of equality constraints.................:      706
Total number of inequality constraints...............:     1024
        inequality constraints with only lower bounds:      112
   inequality constraints with lower and upper bounds:      816
        inequality constraints with only upper bounds:       96

iter    objective    inf_pr   inf_du lg(mu)  ||d||  lg(rg) alpha_du alpha_pr  ls
   0  0.0000000e+00 9.71e+00 1.00e+00   0.0 0.00e+00    -  0.00e+00 0.00e+00   0
   1  0.0000000e+00 8.74e+00 3.43e+01   0.0 5.30e+00    -  4.12e-01 9.94e-02f  1
   2  0.0000000e+00 5.28e+00 5.19e+01   0.4 6.92e+00    -  9.93e-01 3.96e-01f  1
   3  0.0000000e+00 1.13e+00 9.05e+01   0.3 5.07e+00    -  7.61e-01 7.87e-01f  1
   4  0.0000000e+00 1.14e-02 1.04e+01  -0.0 1.43e+00    -  9.93e-01 1.00e+00f  1
   5  0.0000000e+00 1.10e-03 1.08e+01  -1.5 7.06e-02    -  9.19e-01 1.00e+00h  1
   6  0.0000000e+00 1.10e-03 6.96e-03  -2.5 1.06e-01    -  9.99e-01 1.00e+00h  1
   7  0.0000000e+00 1.10e-03 1.28e-03  -4.6 1.28e-02    -  9.95e-01 1.00e+00h  1
   8  0.0000000e+00 1.10e-03 1.59e-05 -10.4 1.00e-03    -  9.97e-01 1.00e+00h  1
   9  0.0000000e+00 1.10e-03 8.44e-05  -9.0 9.62e-05    -  1.00e+00 1.00e+00h  1
iter    objective    inf_pr   inf_du lg(mu)  ||d||  lg(rg) alpha_du alpha_pr  ls
  10  0.0000000e+00 1.10e-03 9.19e-08 -11.0 8.89e-06  -2.0 1.00e+00 1.00e+00h  1
  11  0.0000000e+00 1.10e-03 1.26e-09 -11.0 3.44e-07  -2.5 1.00e+00 1.00e+00h  1
  12  0.0000000e+00 1.10e-03 1.47e-10 -11.0 1.65e-08  -2.1 1.00e+00 1.00e+00h  1
  13r 0.0000000e+00 1.10e-03 9.99e+02  -3.0 0.00e+00  -2.5 0.00e+00 4.77e-07R 22
  14r 0.0000000e+00 1.10e-03 1.39e+01  -4.8 1.26e-04    -  1.00e+00 9.86e-01f  1
  15r 0.0000000e+00 1.13e-03 9.23e-06  -5.2 3.96e-03    -  1.00e+00 1.00e+00f  1
  16r 0.0000000e+00 1.10e-03 6.53e+00  -7.2 2.47e-03    -  9.80e-01 1.00e+00h  1
  17r 0.0000000e+00 1.10e-03 1.33e-07  -8.2 7.19e-04    -  1.00e+00 1.00e+00h  1
  18r 0.0000000e+00 1.10e-03 4.28e-08  -9.0 3.48e-04    -  1.00e+00 1.00e+00h  1

Number of Iterations....: 18

                                   (scaled)                 (unscaled)
Objective...............:   0.0000000000000000e+00    0.0000000000000000e+00
Dual infeasibility......:   2.6044365867987641e-08    2.6044365867987641e-08
Constraint violation....:   1.1009449093777671e-03    1.1009449093777671e-03
Complementarity.........:   1.0000018735343597e-09    1.0000018735343597e-09
Overall NLP error.......:   1.1009449093777671e-03    1.1009449093777671e-03


Number of objective function evaluations             = 44
Number of objective gradient evaluations             = 15
Number of equality constraint evaluations            = 44
Number of inequality constraint evaluations          = 44
Number of equality constraint Jacobian evaluations   = 21
Number of inequality constraint Jacobian evaluations = 21
Number of Lagrangian Hessian evaluations             = 0
Total CPU secs in IPOPT (w/o function evaluations)   =      0.652
Total CPU secs in NLP function evaluations           =      1.234

EXIT: Converged to a point of local infeasibility. Problem may be infeasible.
status -> 2

************************************************************
    IFOPT - Interface to Nonlinear Optimizers (v2.0)
                © Alexander W. Winkler
           https://github.com/ethz-adrl/ifopt
************************************************************
Legend:
c - number of variables, constraints or cost terms
i - indices of this set in overall problem
v - number of [violated variable- or constraint-bounds] or [cost term value]

                                   c             i             v 
variable-sets:
   base-lin                       306        0....305[0m           0[0m
   base-ang                       306      306....611[0m           0[0m
   ee-motion_0                     35      612....646[0m           0[0m
   ee-motion_1                     35      647....681[0m           0[0m
   ee-motion_2                     35      682....716[0m           0[0m
   ee-motion_3                     35      717....751[0m           0[0m
   ee-force_0                      72      752....823[0m           0[0m
   ee-force_1                      72      824....895[0m           0[0m
   ee-force_2                      72      896....967[0m           0[0m
   ee-force_3                      72      968...1039[0m           0[0m

ERROR: Ipopt failed to find a solution. Return Code: 2
constraint-sets:
   terrain-ee-motion_0             13        0.....12[0m           0[0m
   terrain-ee-motion_1             13       13.....25[31m           1[0m
   terrain-ee-motion_2             13       26.....38[0m           0[0m
   terrain-ee-motion_3             13       39.....51[0m           0[0m
   dynamic                        312       52....363[0m           0[0m
   splineacc-base-lin             147      364....510[0m           0[0m
   splineacc-base-ang             147      511....657[0m           0[0m
   rangeofmotion-0                192      658....849[0m           0[0m
   rangeofmotion-1                192      850...1041[0m           0[0m
   rangeofmotion-2                192     1042...1233[0m           0[0m
   rangeofmotion-3                192     1234...1425[0m           0[0m
   force-ee-force_0                60     1426...1485[0m           0[0m
   force-ee-force_1                60     1486...1545[0m           0[0m
   force-ee-force_2                60     1546...1605[0m           0[0m
   force-ee-force_3                60     1606...1665[0m           0[0m
   swing-ee-motion_0               16     1666...1681[0m           0[0m
   swing-ee-motion_1               16     1682...1697[0m           0[0m
   swing-ee-motion_2               16     1698...1713[0m           0[0m
   swing-ee-motion_3               16     1714...1729[0m           0[0m

cost-terms:

